(set-logic QF_BV)
(declare-fun x0 () (_ BitVec 32))
(declare-fun x1 () (_ BitVec 32))
(declare-fun x2 () (_ BitVec 16))
(assert (let ( (?v_132 ((_ zero_extend 16) x2))) (and true (bvule (_ bv256 32) x1) true (bvule x1 x0) true (= (bvadd ?v_132 (_ bv0 32)) x0) true (bvule ?v_132 (bvsub x0 x1)) true)))
(check-sat)
(exit)
